words_hard_train/107.qaiger
aag 104 24 0 1 80
2
4
8
12
16
20
24
28
36
38
42
46
50
54
58
74
92
106
118
136
154
180
188
192
209
6 3 5
10 6 9
14 10 13
18 14 17
22 18 21
26 23 24
30 27 28
32 22 25
34 30 33
40 36 38
44 40 42
48 44 46
52 48 50
56 52 54
60 57 59
62 56 58
64 61 63
66 35 64
68 34 65
70 67 69
72 19 20
76 73 74
78 76 23
80 53 55
82 81 57
84 79 83
86 78 82
88 85 87
90 2 4
94 91 92
96 94 7
98 96 38
100 97 39
102 99 101
104 102 36
108 106 2
110 108 37
112 105 111
114 89 113
116 15 16
120 117 118
122 120 19
124 49 51
126 125 53
128 123 126
130 122 127
132 129 131
134 11 12
138 135 136
140 138 15
142 45 47
144 143 49
146 141 144
148 140 145
150 147 149
152 7 8
156 153 154
158 156 11
160 41 43
162 161 45
164 158 163
166 159 162
168 165 167
170 102 108
172 168 171
174 150 172
176 132 174
178 114 176
182 62 180
184 63 181
186 183 185
190 32 189
194 191 192
196 33 188
198 194 197
200 187 199
202 186 198
204 201 203
206 178 205
208 70 206
i0 2 y2[0]
i1 2 y2[1]
i2 2 y2[2]
i3 2 y2[3]
i4 2 y2[4]
i5 2 y2[5]
i6 2 y2[6]
i7 1 x1[6]
i8 2 y1[0]
i9 2 y1[1]
i10 2 y1[2]
i11 2 y1[3]
i12 2 y1[4]
i13 2 y1[5]
i14 2 y1[6]
i15 1 x1[5]
i16 1 x1[1]
i17 1 x1[0]
i18 1 x1[4]
i19 1 x1[3]
i20 1 x1[2]
i21 2 y1[7]
i22 2 y2[7]
i23 1 x1[7]
o0 bool[0]
c
simplified
  !=
    add
      1
      2 y1
    and
      1 x1
      unary minus
        2 y2
