words_hard_train/107.qaiger.qdimacs
p cnf 104 241
a 96 68 37 77 46 14 53 59 0
e 1 2 3 4 5 6 7 8 9 10 11 12 13 15 16 17 18 19 20 21 22 23 24 25 26 27 28 29 30 31 32 33 34 35 36 38 39 40 41 42 43 44 45 47 48 49 50 51 52 54 55 56 57 58 60 61 62 63 64 65 66 67 69 70 71 72 73 74 75 76 78 79 80 81 82 83 84 85 86 87 88 89 90 91 92 93 94 95 97 98 99 100 101 102 103 104 0
1 2 3 0
-1 -3 0
-2 -3 0
-3 4 5 0
3 -5 0
-4 -5 0
-5 6 7 0
5 -7 0
-6 -7 0
-7 8 9 0
7 -9 0
-8 -9 0
-9 10 11 0
9 -11 0
-10 -11 0
11 -12 13 0
-11 -13 0
12 -13 0
13 -14 15 0
-13 -15 0
14 -15 0
-11 12 16 0
11 -16 0
-12 -16 0
-15 16 17 0
15 -17 0
-16 -17 0
-18 -19 20 0
18 -20 0
19 -20 0
-20 -21 22 0
20 -22 0
21 -22 0
-22 -23 24 0
22 -24 0
23 -24 0
-24 -25 26 0
24 -26 0
25 -26 0
-26 -27 28 0
26 -28 0
27 -28 0
28 29 30 0
-28 -30 0
-29 -30 0
-28 -29 31 0
28 -31 0
29 -31 0
30 31 32 0
-30 -32 0
-31 -32 0
17 -32 33 0
-17 -33 0
32 -33 0
-17 32 34 0
17 -34 0
-32 -34 0
33 34 35 0
-33 -35 0
-34 -35 0
9 -10 36 0
-9 -36 0
10 -36 0
36 -37 38 0
-36 -38 0
37 -38 0
-38 11 39 0
38 -39 0
-11 -39 0
26 27 40 0
-26 -40 0
-27 -40 0
40 28 41 0
-40 -41 0
-28 -41 0
39 41 42 0
-39 -42 0
-41 -42 0
-39 -41 43 0
39 -43 0
41 -43 0
42 43 44 0
-42 -44 0
-43 -44 0
-1 -2 45 0
1 -45 0
2 -45 0
45 -46 47 0
-45 -47 0
46 -47 0
-47 3 48 0
47 -48 0
-3 -48 0
-48 -19 49 0
48 -49 0
19 -49 0
48 19 50 0
-48 -50 0
-19 -50 0
49 50 51 0
-49 -51 0
-50 -51 0
-51 -18 52 0
51 -52 0
18 -52 0
-53 -1 54 0
53 -54 0
1 -54 0
-54 18 55 0
54 -55 0
-18 -55 0
52 55 56 0
-52 -56 0
-55 -56 0
44 56 57 0
-44 -57 0
-56 -57 0
7 -8 58 0
-7 -58 0
8 -58 0
58 -59 60 0
-58 -60 0
59 -60 0
-60 9 61 0
60 -61 0
-9 -61 0
24 25 62 0
-24 -62 0
-25 -62 0
62 26 63 0
-62 -63 0
-26 -63 0
61 -63 64 0
-61 -64 0
63 -64 0
-61 63 65 0
61 -65 0
-63 -65 0
64 65 66 0
-64 -66 0
-65 -66 0
5 -6 67 0
-5 -67 0
6 -67 0
67 -68 69 0
-67 -69 0
68 -69 0
-69 7 70 0
69 -70 0
-7 -70 0
22 23 71 0
-22 -71 0
-23 -71 0
71 24 72 0
-71 -72 0
-24 -72 0
70 -72 73 0
-70 -73 0
72 -73 0
-70 72 74 0
70 -74 0
-72 -74 0
73 74 75 0
-73 -75 0
-74 -75 0
3 -4 76 0
-3 -76 0
4 -76 0
76 -77 78 0
-76 -78 0
77 -78 0
-78 5 79 0
78 -79 0
-5 -79 0
20 21 80 0
-20 -80 0
-21 -80 0
80 22 81 0
-80 -81 0
-22 -81 0
-79 81 82 0
79 -82 0
-81 -82 0
79 -81 83 0
-79 -83 0
81 -83 0
82 83 84 0
-82 -84 0
-83 -84 0
-51 -54 85 0
51 -85 0
54 -85 0
-84 85 86 0
84 -86 0
-85 -86 0
-75 -86 87 0
75 -87 0
86 -87 0
-66 -87 88 0
66 -88 0
87 -88 0
-57 -88 89 0
57 -89 0
88 -89 0
-31 -90 91 0
31 -91 0
90 -91 0
31 90 92 0
-31 -92 0
-90 -92 0
91 92 93 0
-91 -93 0
-92 -93 0
-16 94 95 0
16 -95 0
-94 -95 0
95 -96 97 0
-95 -97 0
96 -97 0
16 -94 98 0
-16 -98 0
94 -98 0
-97 98 99 0
97 -99 0
-98 -99 0
93 99 100 0
-93 -100 0
-99 -100 0
-93 -99 101 0
93 -101 0
99 -101 0
100 101 102 0
-100 -102 0
-101 -102 0
-89 102 103 0
89 -103 0
-102 -103 0
-35 -103 104 0
35 -104 0
103 -104 0
-104 0
